Gurobi Optimizer version 9.1.2 build v9.1.2rc0 (linux64)
Thread count: 36 physical cores, 72 logical processors, using up to 32 threads
Optimize a model with 12 rows, 57 columns and 590 nonzeros
Model fingerprint: 0xf32eec78
Model has 47 quadratic constraints
Coefficient statistics:
  Matrix range     [2e-05, 3e+00]
  QMatrix range    [1e+00, 1e+00]
  QLMatrix range   [1e+00, 1e+00]
  Objective range  [8e-03, 7e-01]
  Bounds range     [1e+00, 1e+00]
  RHS range        [1e+00, 1e+00]
Presolve removed 9 rows and 0 columns

Continuous model is non-convex -- solving as a MIP.

Presolve removed 9 rows and 0 columns
Presolve time: 0.00s
Presolved: 189 rows, 57 columns, 443 nonzeros
Presolved model has 47 bilinear constraint(s)
Variable types: 57 continuous, 0 integer (0 binary)

Root relaxation: objective -1.743721e+00, 44 iterations, 0.00 seconds

    Nodes    |    Current Node    |     Objective Bounds      |     Work
 Expl Unexpl |  Obj  Depth IntInf | Incumbent    BestBd   Gap | It/Node Time

     0     0   -1.74372    0   38          -   -1.74372      -     -    0s
H    0     0                       0.6147548   -1.74372   384%     -    0s
     0     0   -1.64739    0    1    0.61475   -1.64739   368%     -    0s
H    0     0                      -1.6450460   -1.64739  0.14%     -    0s
     0     0     cutoff    0        -1.64505   -1.64505  0.00%     -    0s

Cutting planes:
  RLT: 25
  BQP: 3

Explored 1 nodes (76 simplex iterations) in 0.01 seconds
Thread count was 32 (of 72 available processors)

Solution count 2: -1.64505 0.614755 
No other solutions better than -1.64505

Optimal solution found (tolerance 1.00e-04)
Best objective -1.645045978473e+00, best bound -1.645045978473e+00, gap 0.0000%

User-callback calls 78, time in user-callback 0.00 sec
Gurobi Optimizer version 9.1.2 build v9.1.2rc0 (linux64)
Thread count: 36 physical cores, 72 logical processors, using up to 32 threads
Optimize a model with 60 rows, 312 columns and 16100 nonzeros
Model fingerprint: 0x6c00be4f
Model has 262 quadratic constraints
Coefficient statistics:
  Matrix range     [4e-07, 7e+00]
  QMatrix range    [1e+00, 1e+00]
  QLMatrix range   [1e+00, 1e+00]
  Objective range  [5e-03, 1e+00]
  Bounds range     [1e+00, 1e+00]
  RHS range        [1e+00, 1e+00]
Presolve removed 15 rows and 0 columns

Continuous model is non-convex -- solving as a MIP.

Presolve removed 15 rows and 0 columns
Presolve time: 0.01s
Presolved: 1081 rows, 312 columns, 13448 nonzeros
Presolved model has 262 bilinear constraint(s)
Variable types: 312 continuous, 0 integer (0 binary)

Root relaxation: objective -2.507253e+01, 315 iterations, 0.02 seconds

    Nodes    |    Current Node    |     Objective Bounds      |     Work
 Expl Unexpl |  Obj  Depth IntInf | Incumbent    BestBd   Gap | It/Node Time

     0     0  -25.07253    0  151          -  -25.07253      -     -    0s
     0     0  -24.09850    0   74          -  -24.09850      -     -    0s
     0     0  -24.06458    0   74          -  -24.06458      -     -    0s
     0     0  -23.98628    0   74          -  -23.98628      -     -    0s
     0     0  -23.98575    0   74          -  -23.98575      -     -    0s
     0     0  -23.97986    0   74          -  -23.97986      -     -    0s
     0     0  -23.97900    0   74          -  -23.97900      -     -    0s
     0     0  -23.97682    0   74          -  -23.97682      -     -    0s
     0     0  -23.97568    0   74          -  -23.97568      -     -    0s
     0     0  -23.97493    0   74          -  -23.97493      -     -    0s
H    0     0                     -21.8249204  -23.97493  9.85%     -    0s
H    0     0                     -21.8833713  -23.97493  9.56%     -    0s
     0     2  -23.97493    0   74  -21.88337  -23.97493  9.56%     -    0s
* 1569  1450              64     -22.3339727  -23.36615  4.62%  45.6    1s
* 2217  1927              56     -22.8142387  -23.36466  2.41%  40.3    1s
* 2218  1927              56     -22.8142389  -23.36466  2.41%  40.2    1s
* 2674  1797              69     -22.8178068  -23.36466  2.40%  38.7    2s
* 6552  1584              80     -22.8178133  -23.36466  2.40%  38.4    4s
* 6557  1584              80     -22.8178185  -23.36466  2.40%  38.4    4s
* 6652  1747              66     -22.8571823  -23.36466  2.22%  38.1    4s
* 6653  1747              66     -22.8571846  -23.36466  2.22%  38.1    4s
* 7040  1873              63     -23.0241918  -23.36466  1.48%  37.1    4s
* 9542  1740              63     -23.0241993  -23.14071  0.51%  32.6    4s
* 9691  1812              58     -23.0242925  -23.05523  0.13%  32.3    4s
* 9692  1812              58     -23.0242926  -23.05523  0.13%  32.3    4s
  9972  1867     cutoff   37       -23.02429  -23.04964  0.11%  31.7    5s
*10040  1867              59     -23.0244408  -23.04750  0.10%  31.5    5s
*10286  1867              59     -23.0244470  -23.04750  0.10%  30.9    5s
*10372  1867              54     -23.0260104  -23.04750  0.09%  30.7    5s
*11194  1905              57     -23.0275381  -23.04171  0.06%  29.2    5s
*11784  1709              55     -23.0279192  -23.03986  0.05%  28.0    5s
*11785  1709              55     -23.0279204  -23.03986  0.05%  28.0    5s
*12102  1772              58     -23.0279478  -23.03738  0.04%  27.4    5s
*12103  1772              58     -23.0279497  -23.03738  0.04%  27.4    5s
*12191  1772              69     -23.0280409  -23.03738  0.04%  27.3    5s
*12243  1772              61     -23.0280846  -23.03738  0.04%  27.2    5s
*12466  1772              64     -23.0281678  -23.03738  0.04%  26.8    5s
*12467  1772              64     -23.0281798  -23.03738  0.04%  26.8    5s
*12748  1990              64     -23.0282417  -23.03102  0.01%  26.3    5s
*13000  1990              62     -23.0289568  -23.03051  0.01%  25.9    5s
*13202  1990              62     -23.0289793  -23.03051  0.01%  25.6    5s

Explored 13369 nodes (339371 simplex iterations) in 5.52 seconds
Thread count was 32 (of 72 available processors)

Solution count 10: -23.029 -23.029 -23.0282 ... -23.0275

Optimal solution found (tolerance 1.00e-04)
Best objective -2.302897927297e+01, best bound -2.303050615104e+01, gap 0.0066%

User-callback calls 27569, time in user-callback 0.01 sec



objective value: -23.028979272973814
objective bound: -23.03050615104449
x_opt: [0.999256441429933, 1.0, 0.0, 0.382407742012436, 0.0, 0.0, 1.0, 0.0, 0.0, 0.0, 1.0, 0.0, 1.0, 1.0, 0.1589669549447099, 1.0, 0.0, 1.0, 0.0, 0.0, 1.0, 0.6778092585382182, 0.0, 0.8223390170639622, 0.0, 0.7943275681042471, 0.0, 1.0, 0.0, 0.0, 1.0, 0.8796315798053521, 0.0, 0.38058413285641124, 1.0, 1.0, 0.0664892512495701, 1.0, 0.0, 0.8133646776592416, 1.0, 0.0, 1.0, 0.0, 0.0, 0.09224410844476551, 0.9132175410804539, 0.0, 1.0, 0.1687151987456732]
GUROBI solution time: 5.515933990478516




